p cnf 7 18
4 2 -1 3 0
-2 -6 3 1 5 0
-6 -5 7 0
-4 3 5 -7 -1 2 6 0
-1 6 3 -2 0
7 -4 0
7 1 0
-3 -7 -6 0
3 -6 7 0
-2 -4 -3 1 -6 0
-5 3 7 4 6 2 0
-5 -6 -2 0
5 -4 1 0
3 -5 -1 0
-2 -4 0
4 -5 0
-4 -7 2 -6 0
3 2 -6 -4 0
